p edge 900 2160
e 1 256
e 1 643
e 1 648
e 2 170
e 2 386
e 2 840
e 3 102
e 3 281
e 3 842
e 4 132
e 4 612
e 4 636
e 5 22
e 5 106
e 5 147
e 5 195
e 5 357
e 5 359
e 5 360
e 5 441
e 5 533
e 5 543
e 5 770
e 5 863
e 6 36
e 6 301
e 6 395
e 7 153
e 7 401
e 7 570
e 7 655
e 7 683
e 7 723
e 7 739
e 7 756
e 7 781
e 7 820
e 7 868
e 7 892
e 8 81
e 8 285
e 8 320
e 8 341
e 8 343
e 8 396
e 8 423
e 8 459
e 8 498
e 8 608
e 8 690
e 8 853
e 9 157
e 9 171
e 9 373
e 9 388
e 9 541
e 9 596
e 9 629
e 9 743
e 9 774
e 9 798
e 9 800
e 9 832
e 10 83
e 10 395
e 10 783
e 11 395
e 11 663
e 11 804
e 12 107
e 12 174
e 12 198
e 12 208
e 12 322
e 12 415
e 12 584
e 12 664
e 12 734
e 12 776
e 12 811
e 12 851
e 13 77
e 13 757
e 13 834
e 14 460
e 14 793
e 14 801
e 15 161
e 15 242
e 15 318
e 15 394
e 15 434
e 15 473
e 15 518
e 15 529
e 15 622
e 15 751
e 15 821
e 15 841
e 16 281
e 16 665
e 16 692
e 17 37
e 17 76
e 17 176
e 17 191
e 17 236
e 17 239
e 17 250
e 17 343
e 17 494
e 17 518
e 17 551
e 17 727
e 18 102
e 18 175
e 18 815
e 19 440
e 19 786
e 19 830
e 20 55
e 20 82
e 20 84
e 20 220
e 20 324
e 20 393
e 20 409
e 20 464
e 20 481
e 20 782
e 20 836
e 20 888
e 21 71
e 21 408
e 21 875
e 22 202
e 22 248
e 23 72
e 23 119
e 23 238
e 23 284
e 23 374
e 23 589
e 23 593
e 23 605
e 23 699
e 23 717
e 23 720
e 23 733
e 24 113
e 24 206
e 24 709
e 25 615
e 25 696
e 25 757
e 26 163
e 26 256
e 26 674
e 27 97
e 27 101
e 27 105
e 27 180
e 27 411
e 27 422
e 27 475
e 27 521
e 27 528
e 27 572
e 27 686
e 27 763
e 28 46
e 28 47
e 28 640
e 29 248
e 29 671
e 29 801
e 30 67
e 30 279
e 30 705
e 31 383
e 31 592
e 31 787
e 32 279
e 32 301
e 32 881
e 33 199
e 33 228
e 33 248
e 34 140
e 34 715
e 34 880
e 35 38
e 35 456
e 35 757
e 36 108
e 36 110
e 36 195
e 36 300
e 36 326
e 36 345
e 36 385
e 36 584
e 36 637
e 36 683
e 36 827
e 37 579
e 37 636
e 38 259
e 38 500
e 38 514
e 38 539
e 38 586
e 38 633
e 38 695
e 38 717
e 38 764
e 38 838
e 38 871
e 39 41
e 39 256
e 39 398
e 40 53
e 40 450
e 40 503
e 41 87
e 41 125
e 41 189
e 41 240
e 41 336
e 41 393
e 41 536
e 41 652
e 41 702
e 41 723
e 41 732
e 42 503
e 42 636
e 42 817
e 43 408
e 43 688
e 43 822
e 44 459
e 44 495
e 44 512
e 44 521
e 44 548
e 44 559
e 44 594
e 44 606
e 44 670
e 44 706
e 44 799
e 44 800
e 45 83
e 45 130
e 45 705
e 46 213
e 46 229
e 46 260
e 46 330
e 46 337
e 46 357
e 46 415
e 46 523
e 46 613
e 46 816
e 46 892
e 47 58
e 47 155
e 47 268
e 47 300
e 47 359
e 47 457
e 47 645
e 47 713
e 47 732
e 47 814
e 47 839
e 48 67
e 48 254
e 48 661
e 49 469
e 49 663
e 49 822
e 50 139
e 50 169
e 50 272
e 50 293
e 50 325
e 50 339
e 50 367
e 50 474
e 50 673
e 50 676
e 50 756
e 50 759
e 51 329
e 51 703
e 51 875
e 52 71
e 52 563
e 52 715
e 53 129
e 53 231
e 53 580
e 53 595
e 53 605
e 53 646
e 53 656
e 53 700
e 53 765
e 53 810
e 53 831
e 54 61
e 54 76
e 54 185
e 54 387
e 54 483
e 54 512
e 54 522
e 54 624
e 54 666
e 54 719
e 54 769
e 54 890
e 55 392
e 55 806
e 56 334
e 56 383
e 56 762
e 57 460
e 57 714
e 57 829
e 58 190
e 58 338
e 59 334
e 59 665
e 59 771
e 60 279
e 60 450
e 60 834
e 61 114
e 61 616
e 62 66
e 62 93
e 62 661
e 63 249
e 63 266
e 63 289
e 63 291
e 63 317
e 63 455
e 63 625
e 63 684
e 63 727
e 63 821
e 63 835
e 63 861
e 64 450
e 64 456
e 64 709
e 65 262
e 65 368
e 65 649
e 66 109
e 66 144
e 66 159
e 66 200
e 66 231
e 66 375
e 66 653
e 66 699
e 66 720
e 66 788
e 66 886
e 67 81
e 67 185
e 67 360
e 67 435
e 67 438
e 67 477
e 67 532
e 67 556
e 67 726
e 67 896
e 68 199
e 68 334
e 68 636
e 69 112
e 69 329
e 69 787
e 70 188
e 70 203
e 70 323
e 70 326
e 70 357
e 70 389
e 70 427
e 70 473
e 70 516
e 70 519
e 70 588
e 70 599
e 71 74
e 71 109
e 71 181
e 71 265
e 71 270
e 71 486
e 71 561
e 71 633
e 71 650
e 71 789
e 72 207
e 72 725
e 73 450
e 73 553
e 73 755
e 74 362
e 74 701
e 75 202
e 75 461
e 75 801
e 76 378
e 77 107
e 77 137
e 77 244
e 77 247
e 77 340
e 77 352
e 77 430
e 77 551
e 77 597
e 77 726
e 77 818
e 78 329
e 78 368
e 78 688
e 79 433
e 79 440
e 79 755
e 80 152
e 80 463
e 80 741
e 81 378
e 82 398
e 82 648
e 83 85
e 83 201
e 83 243
e 83 259
e 83 405
e 83 664
e 83 693
e 83 859
e 83 864
e 83 866
e 84 369
e 84 779
e 85 276
e 85 281
e 86 640
e 86 741
e 86 778
e 87 190
e 87 848
e 88 95
e 88 338
e 88 585
e 89 319
e 89 338
e 89 703
e 90 419
e 90 465
e 90 553
e 91 319
e 91 860
e 91 862
e 92 199
e 92 383
e 92 461
e 93 181
e 93 283
e 93 332
e 93 479
e 93 514
e 93 561
e 93 619
e 93 694
e 93 837
e 93 867
e 93 886
e 94 715
e 94 762
e 94 822
e 95 275
e 95 282
e 95 293
e 95 413
e 95 484
e 95 652
e 95 658
e 95 668
e 95 704
e 95 710
e 95 794
e 96 281
e 96 644
e 96 768
e 97 681
e 97 860
e 98 329
e 98 353
e 98 692
e 99 398
e 99 469
e 99 762
e 100 319
e 100 433
e 100 674
e 101 661
e 101 674
e 102 314
e 102 341
e 102 343
e 102 348
e 102 421
e 102 477
e 102 574
e 102 624
e 102 718
e 102 719
e 103 661
e 103 701
e 103 830
e 104 582
e 104 783
e 104 858
e 105 783
e 105 815
e 106 416
e 106 793
e 107 221
e 108 143
e 108 485
e 109 647
e 110 254
e 110 517
e 111 450
e 111 463
e 111 493
e 112 123
e 112 182
e 112 289
e 112 376
e 112 482
e 112 519
e 112 567
e 112 601
e 112 618
e 112 625
e 112 773
e 113 148
e 113 219
e 113 231
e 113 296
e 113 384
e 113 424
e 113 443
e 113 499
e 113 542
e 113 788
e 113 838
e 114 141
e 114 226
e 114 287
e 114 320
e 114 466
e 114 487
e 114 502
e 114 574
e 114 577
e 114 630
e 114 807
e 115 170
e 115 353
e 115 848
e 116 299
e 116 334
e 116 705
e 117 175
e 117 692
e 117 882
e 118 262
e 118 398
e 118 503
e 119 640
e 119 817
e 120 643
e 120 755
e 120 817
e 121 362
e 121 681
e 121 701
e 122 485
e 122 531
e 122 804
e 123 350
e 123 408
e 124 408
e 124 701
e 124 862
e 125 585
e 125 703
e 126 175
e 126 644
e 126 752
e 127 515
e 127 563
e 127 643
e 128 362
e 128 647
e 128 661
e 129 419
e 129 757
e 130 328
e 130 330
e 130 335
e 130 366
e 130 373
e 130 411
e 130 506
e 130 532
e 130 584
e 130 620
e 130 621
e 131 228
e 131 248
e 131 787
e 132 292
e 132 302
e 132 361
e 132 389
e 132 434
e 132 518
e 132 549
e 132 567
e 132 654
e 132 659
e 132 689
e 133 369
e 133 644
e 133 793
e 134 456
e 134 604
e 134 840
e 135 168
e 135 209
e 135 298
e 135 442
e 135 558
e 135 628
e 135 682
e 135 691
e 135 702
e 135 852
e 135 872
e 135 887
e 136 246
e 136 266
e 136 293
e 136 382
e 136 441
e 136 472
e 136 482
e 136 573
e 136 618
e 136 680
e 136 689
e 136 894
e 137 741
e 137 779
e 138 398
e 138 697
e 138 840
e 139 215
e 139 714
e 140 261
e 140 273
e 140 280
e 140 312
e 140 339
e 140 347
e 140 462
e 140 580
e 140 630
e 140 707
e 140 759
e 141 165
e 141 456
e 142 460
e 142 582
e 142 604
e 143 229
e 143 240
e 143 277
e 143 358
e 143 397
e 143 474
e 143 566
e 143 626
e 143 638
e 143 651
e 143 847
e 144 647
e 144 681
e 145 235
e 145 245
e 145 834
e 146 279
e 146 783
e 146 813
e 147 766
e 147 804
e 148 237
e 148 725
e 149 214
e 149 226
e 149 313
e 149 396
e 149 527
e 149 666
e 149 754
e 149 758
e 149 811
e 149 825
e 149 877
e 149 891
e 150 248
e 150 703
e 150 829
e 151 256
e 151 840
e 151 860
e 152 227
e 152 233
e 152 240
e 152 315
e 152 381
e 152 442
e 152 551
e 152 587
e 152 655
e 152 782
e 152 799
e 153 319
e 153 696
e 154 378
e 154 741
e 154 761
e 155 170
e 155 369
e 156 329
e 156 392
e 156 485
e 157 674
e 157 681
e 158 248
e 158 383
e 158 778
e 159 663
e 159 701
e 160 206
e 160 681
e 160 822
e 161 416
e 161 778
e 162 671
e 162 716
e 162 858
e 163 298
e 163 491
e 163 559
e 163 569
e 163 609
e 163 639
e 163 687
e 163 736
e 163 737
e 163 758
e 163 888
e 164 170
e 164 526
e 164 768
e 165 186
e 165 201
e 165 208
e 165 209
e 165 340
e 165 409
e 165 431
e 165 497
e 165 547
e 165 869
e 165 878
e 166 168
e 166 294
e 166 397
e 166 410
e 166 431
e 166 504
e 166 652
e 166 731
e 166 777
e 166 781
e 166 792
e 166 836
e 167 419
e 167 440
e 167 450
e 168 493
e 169 714
e 169 846
e 170 311
e 170 508
e 170 559
e 170 574
e 170 627
e 170 730
e 170 866
e 170 893
e 171 582
e 171 771
e 172 175
e 172 299
e 172 766
e 173 716
e 173 806
e 173 842
e 174 254
e 174 824
e 175 370
e 175 391
e 175 512
e 175 729
e 175 750
e 175 790
e 175 853
e 175 866
e 176 463
e 176 806
e 177 350
e 177 383
e 177 563
e 178 218
e 178 515
e 178 762
e 179 301
e 179 465
e 179 616
e 180 771
e 180 842
e 181 615
e 182 592
e 182 778
e 183 515
e 183 709
e 183 786
e 184 463
e 184 612
e 184 779
e 185 417
e 186 517
e 186 752
e 187 190
e 187 386
e 187 858
e 188 383
e 188 408
e 189 775
e 189 779
e 190 507
e 190 521
e 190 537
e 190 602
e 190 680
e 190 770
e 190 795
e 190 798
e 190 812
e 191 199
e 191 876
e 192 378
e 192 644
e 192 880
e 193 440
e 193 755
e 193 757
e 194 766
e 194 801
e 194 813
e 195 350
e 196 408
e 196 433
e 196 647
e 197 215
e 197 290
e 197 829
e 198 616
e 198 862
e 199 331
e 199 448
e 199 473
e 199 482
e 199 529
e 199 530
e 199 600
e 199 780
e 200 550
e 200 701
e 201 301
e 202 278
e 202 388
e 202 406
e 202 452
e 202 572
e 202 670
e 202 732
e 202 797
e 202 802
e 202 894
e 203 665
e 203 783
e 204 276
e 204 369
e 204 848
e 205 368
e 205 592
e 205 875
e 206 216
e 206 302
e 206 403
e 206 436
e 206 486
e 206 500
e 206 530
e 206 534
e 206 589
e 206 711
e 207 219
e 207 250
e 207 278
e 207 385
e 207 507
e 207 590
e 207 613
e 207 645
e 207 708
e 207 845
e 207 861
e 208 768
e 209 319
e 210 465
e 210 563
e 210 647
e 211 493
e 211 517
e 211 768
e 212 228
e 212 350
e 212 762
e 213 237
e 213 793
e 214 517
e 214 862
e 215 222
e 215 273
e 215 288
e 215 289
e 215 295
e 215 524
e 215 614
e 215 631
e 215 794
e 215 885
e 216 218
e 216 408
e 217 688
e 217 714
e 217 880
e 218 309
e 218 393
e 218 447
e 218 569
e 218 607
e 218 679
e 218 721
e 218 796
e 218 852
e 218 854
e 219 817
e 220 338
e 220 643
e 221 259
e 221 380
e 221 462
e 221 470
e 221 476
e 221 484
e 221 828
e 221 831
e 221 884
e 221 899
e 221 900
e 222 368
e 222 715
e 223 585
e 223 674
e 223 862
e 224 419
e 224 440
e 224 862
e 225 276
e 225 353
e 225 793
e 226 761
e 227 279
e 227 612
e 228 246
e 228 288
e 228 317
e 228 361
e 228 427
e 228 453
e 228 472
e 228 552
e 228 684
e 229 692
e 230 235
e 230 604
e 230 761
e 232 585
e 232 696
e 232 775
e 233 716
e 233 815
e 234 663
e 234 674
e 234 858
e 235 285
e 235 414
e 235 421
e 235 425
e 235 508
e 235 547
e 235 666
e 235 707
e 235 843
e 235 856
e 236 279
e 236 779
e 237 238
e 237 239
e 237 300
e 237 404
e 237 455
e 237 538
e 237 735
e 237 797
e 237 812
e 237 873
e 238 262
e 239 778
e 241 582
e 241 716
e 241 779
e 242 755
e 242 817
e 243 615
e 243 881
e 244 517
e 244 881
e 245 321
e 245 466
e 245 609
e 245 638
e 245 695
e 245 698
e 245 781
e 245 823
e 245 825
e 245 857
e 245 869
e 246 579
e 247 301
e 247 649
e 248 537
e 248 567
e 248 625
e 248 658
e 248 673
e 248 785
e 249 329
e 249 383
e 250 787
e 251 485
e 251 526
e 251 882
e 252 395
e 252 858
e 252 882
e 253 350
e 253 771
e 253 882
e 254 304
e 254 333
e 254 402
e 254 598
e 254 763
e 254 816
e 254 832
e 254 844
e 254 864
e 255 395
e 255 752
e 255 771
e 256 381
e 256 431
e 256 510
e 256 555
e 256 560
e 256 623
e 256 808
e 256 854
e 257 550
e 257 647
e 257 830
e 258 372
e 258 643
e 258 697
e 260 766
e 260 775
e 261 592
e 261 829
e 262 264
e 262 296
e 262 318
e 262 418
e 262 444
e 262 476
e 262 590
e 262 668
e 262 679
e 263 299
e 263 350
e 263 783
e 264 636
e 264 755
e 265 515
e 265 663
e 266 383
e 267 398
e 267 408
e 267 515
e 268 648
e 268 671
e 269 463
e 269 517
e 269 649
e 270 469
e 270 681
e 271 398
e 271 419
e 271 817
e 272 461
e 272 703
e 273 576
e 274 576
e 274 592
e 274 714
e 275 461
e 275 829
e 276 391
e 276 399
e 276 425
e 276 457
e 276 639
e 276 706
e 276 718
e 276 803
e 276 807
e 277 344
e 277 576
e 278 369
e 279 322
e 279 356
e 279 429
e 279 497
e 279 738
e 279 900
e 280 416
e 280 829
e 281 387
e 281 423
e 281 488
e 281 594
e 281 627
e 281 662
e 281 791
e 281 897
e 282 319
e 282 648
e 283 563
e 283 862
e 284 362
e 284 553
e 285 616
e 286 526
e 286 665
e 286 766
e 287 290
e 287 715
e 288 787
e 290 325
e 290 367
e 290 414
e 290 454
e 290 471
e 290 540
e 290 675
e 290 831
e 290 849
e 290 870
e 291 416
e 291 876
e 292 334
e 292 876
e 294 338
e 294 368
e 295 353
e 295 766
e 296 640
e 297 640
e 297 793
e 297 824
e 298 860
e 299 333
e 299 411
e 299 516
e 299 525
e 299 593
e 299 629
e 299 662
e 299 788
e 299 898
e 301 310
e 301 313
e 301 505
e 301 610
e 301 621
e 301 816
e 301 884
e 302 715
e 303 550
e 303 615
e 303 647
e 304 681
e 304 804
e 305 612
e 305 640
e 305 787
e 306 368
e 306 461
e 306 576
e 307 615
e 307 649
e 307 752
e 308 705
e 308 842
e 308 858
e 309 372
e 309 860
e 310 493
e 310 752
e 311 372
e 311 716
e 312 576
e 312 846
e 313 433
e 314 612
e 314 761
e 315 648
e 315 775
e 316 338
e 316 671
e 316 848
e 317 461
e 318 419
e 319 324
e 319 536
e 319 566
e 319 685
e 319 698
e 319 808
e 320 604
e 321 709
e 321 757
e 322 649
e 323 705
e 323 882
e 324 493
e 325 592
e 326 531
e 327 592
e 327 703
e 327 715
e 328 661
e 328 804
e 329 339
e 329 400
e 329 552
e 329 710
e 329 745
e 329 870
e 330 517
e 331 350
e 331 876
e 332 362
e 332 663
e 333 858
e 334 376
e 334 453
e 334 523
e 334 622
e 334 637
e 334 667
e 334 863
e 335 681
e 335 813
e 336 671
e 336 793
e 337 350
e 337 801
e 338 406
e 338 626
e 338 628
e 338 655
e 338 826
e 338 854
e 340 450
e 341 804
e 342 636
e 342 778
e 342 846
e 344 346
e 344 352
e 344 445
e 344 497
e 344 571
e 344 632
e 344 695
e 344 728
e 344 756
e 344 765
e 344 879
e 345 692
e 345 775
e 346 775
e 346 829
e 347 553
e 347 649
e 348 526
e 348 582
e 349 398
e 349 725
e 349 755
e 350 434
e 350 669
e 350 712
e 350 767
e 351 378
e 351 761
e 351 813
e 352 493
e 353 623
e 353 708
e 353 713
e 353 747
e 353 782
e 353 802
e 353 812
e 353 872
e 354 579
e 354 612
e 354 876
e 355 416
e 355 604
e 355 842
e 356 493
e 356 757
e 358 766
e 358 824
e 359 846
e 360 692
e 361 461
e 362 424
e 362 443
e 362 525
e 362 595
e 362 635
e 362 694
e 362 733
e 363 771
e 363 815
e 363 858
e 364 515
e 364 579
e 364 875
e 365 460
e 365 616
e 365 815
e 366 752
e 366 783
e 367 416
e 368 382
e 368 470
e 368 536
e 368 578
e 368 673
e 368 746
e 369 381
e 369 400
e 369 558
e 369 602
e 369 614
e 369 634
e 369 735
e 370 378
e 370 842
e 371 392
e 371 644
e 371 848
e 372 437
e 372 478
e 372 481
e 372 510
e 372 603
e 372 678
e 372 706
e 372 825
e 372 887
e 373 882
e 374 469
e 374 709
e 375 786
e 375 882
e 376 563
e 377 416
e 377 582
e 377 616
e 378 508
e 378 568
e 378 690
e 378 807
e 378 890
e 378 897
e 379 408
e 379 469
e 379 643
e 380 709
e 380 752
e 382 829
e 383 611
e 383 689
e 383 785
e 383 885
e 384 553
e 384 830
e 385 793
e 386 388
e 386 422
e 386 423
e 386 467
e 386 483
e 386 587
e 386 591
e 386 639
e 386 678
e 386 790
e 387 716
e 389 636
e 390 616
e 390 761
e 390 880
e 391 768
e 392 439
e 392 442
e 392 457
e 392 490
e 392 507
e 392 555
e 392 631
e 392 797
e 392 893
e 394 460
e 394 787
e 395 415
e 395 435
e 395 475
e 395 629
e 395 724
e 395 809
e 395 889
e 396 880
e 397 696
e 398 437
e 398 534
e 398 628
e 398 736
e 399 526
e 399 752
e 400 766
e 401 456
e 401 585
e 402 663
e 402 813
e 403 550
e 403 663
e 404 824
e 404 848
e 405 526
e 405 644
e 406 793
e 407 531
e 407 793
e 407 846
e 408 412
e 408 453
e 408 479
e 409 585
e 410 433
e 410 860
e 412 550
e 412 715
e 413 649
e 413 725
e 414 688
e 416 501
e 416 575
e 416 583
e 416 839
e 416 877
e 417 425
e 417 489
e 417 494
e 417 498
e 417 577
e 417 608
e 417 642
e 417 730
e 417 750
e 417 769
e 417 791
e 418 503
e 418 876
e 419 444
e 419 581
e 419 607
e 419 632
e 419 700
e 419 895
e 420 550
e 420 701
e 420 709
e 421 644
e 422 671
e 424 440
e 426 563
e 426 822
e 426 875
e 427 563
e 428 526
e 428 716
e 428 761
e 429 771
e 429 804
e 430 705
e 430 804
e 432 465
e 432 585
e 432 860
e 433 458
e 433 509
e 433 700
e 433 740
e 433 851
e 433 867
e 433 874
e 435 681
e 436 579
e 436 688
e 437 674
e 438 531
e 438 766
e 439 640
e 439 671
e 440 454
e 440 462
e 440 720
e 440 728
e 440 749
e 440 784
e 441 671
e 443 665
e 444 643
e 445 696
e 445 709
e 446 503
e 446 643
e 446 725
e 447 674
e 447 840
e 448 515
e 448 715
e 449 616
e 449 842
e 449 846
e 450 539
e 450 651
e 450 676
e 450 739
e 450 857
e 451 553
e 451 755
e 451 862
e 452 648
e 452 848
e 454 649
e 455 612
e 456 478
e 456 566
e 456 571
e 456 758
e 456 792
e 456 850
e 456 856
e 458 563
e 458 701
e 459 526
e 460 471
e 460 543
e 460 641
e 460 754
e 460 759
e 460 814
e 460 835
e 461 601
e 461 611
e 461 770
e 461 773
e 461 883
e 463 492
e 463 556
e 463 734
e 463 744
e 463 878
e 463 879
e 463 884
e 464 674
e 464 840
e 465 479
e 465 480
e 465 617
e 465 685
e 465 777
e 465 784
e 465 810
e 465 811
e 466 493
e 467 806
e 467 815
e 468 640
e 468 725
e 468 786
e 469 511
e 469 654
e 469 657
e 469 780
e 469 796
e 469 838
e 469 865
e 470 725
e 471 576
e 472 778
e 474 757
e 475 665
e 476 703
e 477 761
e 478 616
e 480 517
e 480 604
e 481 860
e 483 526
e 484 817
e 485 533
e 485 614
e 485 662
e 485 729
e 485 747
e 485 855
e 485 892
e 485 896
e 486 661
e 487 696
e 487 834
e 488 766
e 488 882
e 489 526
e 489 842
e 490 592
e 490 766
e 491 616
e 491 696
e 492 705
e 492 813
e 493 557
e 493 560
e 493 664
e 493 856
e 494 761
e 495 582
e 495 806
e 496 703
e 496 725
e 496 881
e 498 813
e 499 515
e 499 615
e 500 786
e 501 636
e 501 787
e 502 714
e 502 875
e 503 656
e 503 721
e 503 728
e 503 784
e 503 819
e 503 841
e 503 874
e 504 697
e 504 862
e 505 768
e 505 834
e 506 665
e 506 858
e 509 585
e 509 697
e 510 697
e 511 550
e 511 661
e 513 550
e 513 563
e 513 688
e 514 550
e 515 520
e 515 545
e 515 659
e 515 717
e 516 771
e 517 740
e 517 809
e 517 859
e 517 900
e 519 762
e 520 661
e 520 822
e 522 604
e 522 880
e 523 531
e 524 688
e 524 703
e 525 786
e 526 568
e 526 898
e 527 696
e 527 840
e 528 663
e 528 697
e 529 612
e 530 875
e 531 537
e 531 575
e 531 712
e 531 760
e 531 814
e 531 883
e 531 894
e 532 663
e 533 813
e 534 563
e 535 649
e 535 703
e 535 817
e 538 786
e 538 817
e 539 696
e 540 829
e 540 846
e 541 705
e 541 815
e 542 830
e 542 882
e 543 848
e 544 661
e 544 858
e 544 860
e 545 550
e 545 681
e 546 701
e 546 822
e 546 830
e 547 696
e 548 779
e 548 815
e 549 741
e 549 876
e 550 660
e 550 694
e 552 778
e 553 632
e 553 653
e 553 819
e 553 849
e 553 874
e 553 899
e 554 647
e 554 762
e 554 862
e 555 779
e 556 771
e 557 696
e 557 880
e 558 806
e 560 585
e 561 830
e 562 647
e 562 663
e 562 830
e 563 796
e 564 787
e 564 846
e 564 876
e 565 681
e 565 697
e 565 858
e 568 815
e 569 697
e 570 648
e 570 779
e 571 615
e 572 716
e 573 576
e 573 703
e 575 848
e 576 583
e 576 658
e 576 722
e 576 739
e 576 870
e 577 644
e 578 817
e 578 881
e 579 588
e 579 622
e 579 657
e 579 751
e 579 767
e 579 773
e 579 785
e 580 881
e 581 636
e 581 725
e 582 587
e 582 686
e 582 750
e 582 891
e 582 897
e 583 714
e 585 638
e 585 682
e 585 746
e 586 649
e 586 768
e 588 876
e 589 615
e 590 786
e 591 779
e 591 842
e 592 634
e 592 684
e 592 704
e 592 747
e 593 830
e 594 761
e 595 786
e 596 661
e 596 697
e 597 612
e 597 806
e 598 768
e 598 783
e 599 801
e 599 824
e 600 636
e 600 741
e 601 778
e 602 640
e 603 604
e 603 696
e 604 609
e 604 610
e 604 677
e 604 851
e 605 830
e 606 644
e 606 840
e 607 725
e 608 741
e 610 862
e 611 787
e 612 690
e 612 769
e 612 845
e 613 848
e 615 748
e 615 828
e 615 857
e 615 865
e 616 740
e 616 823
e 617 701
e 617 762
e 618 787
e 619 681
e 619 830
e 620 768
e 620 771
e 621 824
e 623 806
e 624 813
e 626 779
e 627 752
e 630 688
e 631 692
e 633 701
e 634 692
e 635 647
e 635 822
e 636 767
e 636 835
e 637 801
e 640 727
e 640 802
e 640 827
e 641 778
e 641 876
e 642 761
e 642 804
e 643 702
e 643 711
e 643 737
e 643 805
e 644 678
e 644 687
e 644 713
e 645 824
e 646 649
e 646 714
e 647 650
e 647 764
e 648 731
e 648 746
e 648 795
e 648 847
e 648 852
e 649 693
e 650 709
e 651 829
e 653 786
e 654 875
e 656 862
e 657 715
e 659 688
e 660 762
e 660 875
e 661 889
e 663 774
e 665 669
e 665 699
e 665 729
e 665 832
e 665 833
e 667 783
e 667 882
e 668 881
e 669 705
e 670 858
e 671 708
e 671 735
e 671 800
e 671 883
e 672 801
e 672 846
e 672 848
e 674 737
e 674 777
e 674 887
e 675 875
e 675 880
e 676 775
e 677 815
e 677 846
e 679 755
e 680 801
e 682 834
e 683 766
e 685 697
e 686 705
e 687 716
e 688 704
e 688 780
e 688 789
e 691 697
e 691 840
e 692 742
e 692 760
e 692 820
e 692 898
e 693 709
e 697 888
e 698 775
e 701 748
e 703 731
e 705 724
e 705 844
e 707 875
e 709 753
e 709 837
e 710 715
e 711 762
e 712 824
e 714 745
e 714 749
e 714 843
e 714 899
e 715 843
e 716 798
e 716 803
e 716 853
e 718 880
e 719 741
e 721 817
e 722 757
e 722 775
e 723 806
e 724 768
e 725 772
e 725 841
e 726 783
e 730 880
e 733 882
e 734 881
e 736 860
e 738 741
e 738 806
e 741 751
e 741 861
e 741 873
e 742 801
e 742 804
e 743 783
e 743 842
e 744 783
e 744 804
e 745 829
e 748 822
e 749 881
e 752 776
e 752 844
e 752 871
e 753 768
e 753 881
e 754 842
e 755 765
e 755 772
e 755 810
e 757 819
e 757 868
e 757 878
e 760 813
e 761 790
e 762 789
e 762 867
e 763 882
e 764 822
e 768 828
e 771 818
e 771 864
e 772 876
e 774 860
e 775 792
e 775 826
e 775 855
e 776 834
e 778 845
e 778 885
e 779 872
e 786 833
e 786 865
e 787 873
e 791 815
e 793 795
e 793 893
e 794 875
e 799 842
e 801 839
e 801 896
e 803 840
e 804 890
e 805 840
e 805 860
e 806 826
e 806 847
e 808 834
e 809 824
e 813 818
e 813 889
e 815 877
e 817 895
e 820 824
e 821 846
e 822 837
e 822 886
e 823 840
e 824 855
e 824 863
e 827 848
e 829 868
e 830 833
e 834 836
e 834 850
e 834 859
e 834 879
e 846 891
e 849 881
e 850 880
e 869 880
e 871 881
e 876 895
